letting n =  10
letting blocks =  [[1, 1], [1, 2], [1, 5], [1, 10], [2, 3], [3, 2], [3, 10], [4, 6], [5, 4], [5, 7], [6, 2], [6, 4], [6, 6], [6, 8], [7, 1], [7, 3], [7, 4], [8, 7], [9, 1], [9, 2], [9, 3], [10, 3], [10, 8], [10, 10]]
